p cnf 200 1110
-101 57 0
-101 81 0
-101 -91 0
-101 5 0
-101 -4 0
-101 -73 0
-101 -86 0
-101 -39 0
-101 55 0
-101 99 0
101 -57 -81 91 -5 4 73 86 39 -55 -99 0
-102 3 0
-102 -83 0
-102 80 0
-102 -74 0
-102 42 0
-102 18 0
-102 100 0
-102 -58 0
-102 41 0
-102 -44 0
102 -3 83 -80 74 -42 -18 -100 58 -41 44 0
-103 96 0
-103 -16 0
-103 85 0
-103 37 0
-103 -59 0
-103 -68 0
-103 -55 0
-103 36 0
-103 -7 0
-103 -49 0
103 -96 16 -85 -37 59 68 55 -36 7 49 0
-104 52 0
-104 61 0
-104 -47 0
-104 65 0
-104 62 0
-104 -16 0
-104 40 0
-104 -23 0
-104 -82 0
-104 -97 0
104 -52 -61 47 -65 -62 16 -40 23 82 97 0
-105 26 0
-105 90 0
-105 22 0
-105 -71 0
-105 -21 0
-105 -77 0
-105 -10 0
-105 -80 0
-105 -58 0
-105 42 0
105 -26 -90 -22 71 21 77 10 80 58 -42 0
-106 45 0
-106 -85 0
-106 77 0
-106 9 0
-106 -79 0
-106 -83 0
-106 -50 0
-106 -75 0
-106 34 0
-106 62 0
106 -45 85 -77 -9 79 83 50 75 -34 -62 0
-107 -2 0
-107 -29 0
-107 23 0
-107 6 0
-107 17 0
-107 -1 0
-107 -55 0
-107 14 0
-107 30 0
-107 -66 0
107 2 29 -23 -6 -17 1 55 -14 -30 66 0
-108 -83 0
-108 -66 0
-108 -80 0
-108 -33 0
-108 10 0
-108 -55 0
-108 -69 0
-108 -71 0
-108 -52 0
-108 -76 0
108 83 66 80 33 -10 55 69 71 52 76 0
-109 -63 0
-109 -90 0
-109 95 0
-109 44 0
-109 -85 0
-109 -58 0
-109 27 0
-109 -24 0
-109 100 0
-109 -79 0
109 63 90 -95 -44 85 58 -27 24 -100 79 0
-110 -83 0
-110 -78 0
-110 88 0
-110 55 0
-110 7 0
-110 5 0
-110 6 0
-110 86 0
-110 33 0
-110 66 0
110 83 78 -88 -55 -7 -5 -6 -86 -33 -66 0
101 102 103 104 105 106 107 108 109 110 0
-111 7 0
-111 44 0
-111 -48 0
-111 -20 0
-111 30 0
-111 73 0
-111 -6 0
-111 21 0
-111 -42 0
-111 64 0
111 -7 -44 48 20 -30 -73 6 -21 42 -64 0
-112 84 0
-112 -45 0
-112 -69 0
-112 -19 0
-112 -61 0
-112 31 0
-112 -40 0
-112 9 0
-112 4 0
-112 65 0
112 -84 45 69 19 61 -31 40 -9 -4 -65 0
-113 -34 0
-113 29 0
-113 -49 0
-113 -96 0
-113 -14 0
-113 -22 0
-113 2 0
-113 23 0
-113 -93 0
-113 90 0
113 34 -29 49 96 14 22 -2 -23 93 -90 0
-114 -7 0
-114 52 0
-114 -6 0
-114 -69 0
-114 -24 0
-114 99 0
-114 31 0
-114 64 0
-114 96 0
-114 -67 0
114 7 -52 6 69 24 -99 -31 -64 -96 67 0
-115 -100 0
-115 73 0
-115 -85 0
-115 93 0
-115 92 0
-115 -55 0
-115 -52 0
-115 -97 0
-115 -5 0
-115 -80 0
115 100 -73 85 -93 -92 55 52 97 5 80 0
-116 40 0
-116 74 0
-116 -35 0
-116 -8 0
-116 59 0
-116 -60 0
-116 -33 0
-116 53 0
-116 30 0
-116 99 0
116 -40 -74 35 8 -59 60 33 -53 -30 -99 0
-117 -12 0
-117 23 0
-117 71 0
-117 91 0
-117 -97 0
-117 6 0
-117 95 0
-117 51 0
-117 -84 0
-117 96 0
117 12 -23 -71 -91 97 -6 -95 -51 84 -96 0
-118 55 0
-118 -80 0
-118 88 0
-118 66 0
-118 -76 0
-118 25 0
-118 60 0
-118 36 0
-118 -17 0
-118 -13 0
118 -55 80 -88 -66 76 -25 -60 -36 17 13 0
-119 94 0
-119 19 0
-119 -69 0
-119 42 0
-119 -7 0
-119 5 0
-119 -43 0
-119 -90 0
-119 31 0
-119 64 0
119 -94 -19 69 -42 7 -5 43 90 -31 -64 0
-120 48 0
-120 -54 0
-120 -68 0
-120 24 0
-120 -33 0
-120 73 0
-120 -79 0
-120 -28 0
-120 -39 0
-120 -59 0
120 -48 54 68 -24 33 -73 79 28 39 59 0
111 112 113 114 115 116 117 118 119 120 0
-121 84 0
-121 68 0
-121 -39 0
-121 7 0
-121 59 0
-121 -64 0
-121 35 0
-121 93 0
-121 71 0
-121 -72 0
121 -84 -68 39 -7 -59 64 -35 -93 -71 72 0
-122 -17 0
-122 26 0
-122 -45 0
-122 -21 0
-122 -76 0
-122 -9 0
-122 90 0
-122 -28 0
-122 -64 0
-122 -68 0
122 17 -26 45 21 76 9 -90 28 64 68 0
-123 -17 0
-123 30 0
-123 -80 0
-123 -84 0
-123 31 0
-123 18 0
-123 -95 0
-123 -78 0
-123 -1 0
-123 96 0
123 17 -30 80 84 -31 -18 95 78 1 -96 0
-124 65 0
-124 -86 0
-124 -70 0
-124 -5 0
-124 -66 0
-124 72 0
-124 -32 0
-124 21 0
-124 -87 0
-124 79 0
124 -65 86 70 5 66 -72 32 -21 87 -79 0
-125 77 0
-125 92 0
-125 -45 0
-125 48 0
-125 55 0
-125 14 0
-125 -23 0
-125 -78 0
-125 10 0
-125 -4 0
125 -77 -92 45 -48 -55 -14 23 78 -10 4 0
-126 -53 0
-126 -45 0
-126 98 0
-126 99 0
-126 89 0
-126 4 0
-126 59 0
-126 88 0
-126 -23 0
-126 52 0
126 53 45 -98 -99 -89 -4 -59 -88 23 -52 0
-127 -75 0
-127 -37 0
-127 -26 0
-127 8 0
-127 88 0
-127 -60 0
-127 -57 0
-127 89 0
-127 -24 0
-127 -52 0
127 75 37 26 -8 -88 60 57 -89 24 52 0
-128 65 0
-128 -85 0
-128 18 0
-128 -36 0
-128 60 0
-128 -73 0
-128 40 0
-128 -15 0
-128 -84 0
-128 -33 0
128 -65 85 -18 36 -60 73 -40 15 84 33 0
-129 49 0
-129 -85 0
-129 -8 0
-129 17 0
-129 -46 0
-129 26 0
-129 43 0
-129 -87 0
-129 3 0
-129 -83 0
129 -49 85 8 -17 46 -26 -43 87 -3 83 0
-130 -68 0
-130 97 0
-130 92 0
-130 -94 0
-130 -36 0
-130 -69 0
-130 -17 0
-130 27 0
-130 -67 0
-130 -88 0
130 68 -97 -92 94 36 69 17 -27 67 88 0
121 122 123 124 125 126 127 128 129 130 0
-131 -93 0
-131 -73 0
-131 74 0
-131 53 0
-131 -18 0
-131 -94 0
-131 -84 0
-131 -65 0
-131 69 0
-131 51 0
131 93 73 -74 -53 18 94 84 65 -69 -51 0
-132 -27 0
-132 -60 0
-132 -2 0
-132 -39 0
-132 6 0
-132 -94 0
-132 -81 0
-132 -85 0
-132 41 0
-132 10 0
132 27 60 2 39 -6 94 81 85 -41 -10 0
-133 -33 0
-133 84 0
-133 -98 0
-133 48 0
-133 22 0
-133 -15 0
-133 18 0
-133 97 0
-133 -28 0
-133 -88 0
133 33 -84 98 -48 -22 15 -18 -97 28 88 0
-134 -18 0
-134 80 0
-134 2 0
-134 -90 0
-134 89 0
-134 41 0
-134 -88 0
-134 60 0
-134 -70 0
-134 -87 0
134 18 -80 -2 90 -89 -41 88 -60 70 87 0
-135 10 0
-135 -40 0
-135 64 0
-135 -39 0
-135 84 0
-135 7 0
-135 2 0
-135 -100 0
-135 70 0
-135 -66 0
135 -10 40 -64 39 -84 -7 -2 100 -70 66 0
-136 81 0
-136 -62 0
-136 -13 0
-136 -96 0
-136 55 0
-136 -94 0
-136 54 0
-136 17 0
-136 -31 0
-136 -25 0
136 -81 62 13 96 -55 94 -54 -17 31 25 0
-137 -60 0
-137 82 0
-137 10 0
-137 14 0
-137 -52 0
-137 -71 0
-137 -5 0
-137 46 0
-137 -50 0
-137 -34 0
137 60 -82 -10 -14 52 71 5 -46 50 34 0
-138 14 0
-138 -20 0
-138 10 0
-138 -43 0
-138 61 0
-138 -16 0
-138 5 0
-138 -52 0
-138 -73 0
-138 -17 0
138 -14 20 -10 43 -61 16 -5 52 73 17 0
-139 68 0
-139 -83 0
-139 -2 0
-139 -61 0
-139 -77 0
-139 -57 0
-139 10 0
-139 -5 0
-139 27 0
-139 -19 0
139 -68 83 2 61 77 57 -10 5 -27 19 0
-140 62 0
-140 80 0
-140 7 0
-140 -69 0
-140 3 0
-140 -34 0
-140 13 0
-140 20 0
-140 -23 0
-140 -79 0
140 -62 -80 -7 69 -3 34 -13 -20 23 79 0
131 132 133 134 135 136 137 138 139 140 0
-141 33 0
-141 -91 0
-141 93 0
-141 -45 0
-141 -6 0
-141 -21 0
-141 39 0
-141 -9 0
-141 86 0
-141 74 0
141 -33 91 -93 45 6 21 -39 9 -86 -74 0
-142 -87 0
-142 -46 0
-142 -60 0
-142 -31 0
-142 70 0
-142 40 0
-142 10 0
-142 -99 0
-142 21 0
-142 -23 0
142 87 46 60 31 -70 -40 -10 99 -21 23 0
-143 -29 0
-143 93 0
-143 6 0
-143 -3 0
-143 90 0
-143 52 0
-143 -38 0
-143 83 0
-143 -13 0
-143 -67 0
143 29 -93 -6 3 -90 -52 38 -83 13 67 0
-144 58 0
-144 8 0
-144 -46 0
-144 -60 0
-144 83 0
-144 -45 0
-144 37 0
-144 38 0
-144 -92 0
-144 57 0
144 -58 -8 46 60 -83 45 -37 -38 92 -57 0
-145 39 0
-145 9 0
-145 -20 0
-145 54 0
-145 96 0
-145 -63 0
-145 -74 0
-145 14 0
-145 84 0
-145 -43 0
145 -39 -9 20 -54 -96 63 74 -14 -84 43 0
-146 -35 0
-146 86 0
-146 93 0
-146 -78 0
-146 64 0
-146 65 0
-146 57 0
-146 26 0
-146 -94 0
-146 67 0
146 35 -86 -93 78 -64 -65 -57 -26 94 -67 0
-147 85 0
-147 -51 0
-147 -79 0
-147 95 0
-147 -58 0
-147 38 0
-147 12 0
-147 -83 0
-147 80 0
-147 -88 0
147 -85 51 79 -95 58 -38 -12 83 -80 88 0
-148 -78 0
-148 -49 0
-148 -71 0
-148 46 0
-148 -27 0
-148 5 0
-148 40 0
-148 64 0
-148 -84 0
-148 39 0
148 78 49 71 -46 27 -5 -40 -64 84 -39 0
-149 11 0
-149 -63 0
-149 42 0
-149 -60 0
-149 8 0
-149 -96 0
-149 -7 0
-149 85 0
-149 -47 0
-149 16 0
149 -11 63 -42 60 -8 96 7 -85 47 -16 0
-150 24 0
-150 13 0
-150 -69 0
-150 73 0
-150 -6 0
-150 45 0
-150 -38 0
-150 41 0
-150 -46 0
-150 -12 0
150 -24 -13 69 -73 6 -45 38 -41 46 12 0
141 142 143 144 145 146 147 148 149 150 0
-151 -55 0
-151 -83 0
-151 71 0
-151 87 0
-151 21 0
-151 14 0
-151 82 0
-151 2 0
-151 -57 0
-151 -1 0
151 55 83 -71 -87 -21 -14 -82 -2 57 1 0
-152 18 0
-152 53 0
-152 51 0
-152 -11 0
-152 38 0
-152 21 0
-152 -52 0
-152 -82 0
-152 98 0
-152 -80 0
152 -18 -53 -51 11 -38 -21 52 82 -98 80 0
-153 -43 0
-153 89 0
-153 34 0
-153 -11 0
-153 -50 0
-153 87 0
-153 -95 0
-153 -17 0
-153 16 0
-153 -15 0
153 43 -89 -34 11 50 -87 95 17 -16 15 0
-154 -95 0
-154 -51 0
-154 45 0
-154 71 0
-154 64 0
-154 40 0
-154 -47 0
-154 11 0
-154 -81 0
-154 73 0
154 95 51 -45 -71 -64 -40 47 -11 81 -73 0
-155 -89 0
-155 -97 0
-155 82 0
-155 32 0
-155 -3 0
-155 -44 0
-155 6 0
-155 -58 0
-155 -2 0
-155 -23 0
155 89 97 -82 -32 3 44 -6 58 2 23 0
-156 -12 0
-156 -6 0
-156 55 0
-156 -8 0
-156 44 0
-156 20 0
-156 -17 0
-156 -91 0
-156 -48 0
-156 25 0
156 12 6 -55 8 -44 -20 17 91 48 -25 0
-157 -81 0
-157 30 0
-157 -70 0
-157 -8 0
-157 -59 0
-157 64 0
-157 -74 0
-157 88 0
-157 -100 0
-157 85 0
157 81 -30 70 8 59 -64 74 -88 100 -85 0
-158 -74 0
-158 -34 0
-158 15 0
-158 93 0
-158 -7 0
-158 53 0
-158 86 0
-158 -54 0
-158 -83 0
-158 -73 0
158 74 34 -15 -93 7 -53 -86 54 83 73 0
-159 12 0
-159 -80 0
-159 87 0
-159 50 0
-159 -90 0
-159 72 0
-159 -59 0
-159 1 0
-159 -52 0
-159 -36 0
159 -12 80 -87 -50 90 -72 59 -1 52 36 0
-160 99 0
-160 63 0
-160 -66 0
-160 70 0
-160 58 0
-160 95 0
-160 -53 0
-160 -86 0
-160 -46 0
-160 90 0
160 -99 -63 66 -70 -58 -95 53 86 46 -90 0
151 152 153 154 155 156 157 158 159 160 0
-161 -46 0
-161 70 0
-161 -12 0
-161 24 0
-161 4 0
-161 84 0
-161 -74 0
-161 -10 0
-161 95 0
-161 30 0
161 46 -70 12 -24 -4 -84 74 10 -95 -30 0
-162 -48 0
-162 5 0
-162 -95 0
-162 -98 0
-162 56 0
-162 76 0
-162 -88 0
-162 35 0
-162 -62 0
-162 -16 0
162 48 -5 95 98 -56 -76 88 -35 62 16 0
-163 92 0
-163 19 0
-163 13 0
-163 56 0
-163 -89 0
-163 -82 0
-163 49 0
-163 -53 0
-163 -21 0
-163 30 0
163 -92 -19 -13 -56 89 82 -49 53 21 -30 0
-164 80 0
-164 -61 0
-164 56 0
-164 -62 0
-164 -15 0
-164 -6 0
-164 -17 0
-164 69 0
-164 4 0
-164 5 0
164 -80 61 -56 62 15 6 17 -69 -4 -5 0
-165 -46 0
-165 63 0
-165 -95 0
-165 -9 0
-165 75 0
-165 28 0
-165 90 0
-165 -47 0
-165 44 0
-165 77 0
165 46 -63 95 9 -75 -28 -90 47 -44 -77 0
-166 -83 0
-166 29 0
-166 -33 0
-166 -36 0
-166 51 0
-166 89 0
-166 22 0
-166 21 0
-166 38 0
-166 -72 0
166 83 -29 33 36 -51 -89 -22 -21 -38 72 0
-167 -25 0
-167 -81 0
-167 43 0
-167 53 0
-167 -29 0
-167 -32 0
-167 51 0
-167 -49 0
-167 86 0
-167 -63 0
167 25 81 -43 -53 29 32 -51 49 -86 63 0
-168 30 0
-168 -51 0
-168 49 0
-168 40 0
-168 -67 0
-168 59 0
-168 -11 0
-168 23 0
-168 47 0
-168 -92 0
168 -30 51 -49 -40 67 -59 11 -23 -47 92 0
-169 -79 0
-169 81 0
-169 58 0
-169 -16 0
-169 18 0
-169 -87 0
-169 -34 0
-169 -24 0
-169 -71 0
-169 36 0
169 79 -81 -58 16 -18 87 34 24 71 -36 0
-170 -45 0
-170 -18 0
-170 13 0
-170 -28 0
-170 -52 0
-170 16 0
-170 38 0
-170 93 0
-170 -24 0
-170 -96 0
170 45 18 -13 28 52 -16 -38 -93 24 96 0
161 162 163 164 165 166 167 168 169 170 0
-171 99 0
-171 -23 0
-171 -70 0
-171 96 0
-171 -97 0
-171 -40 0
-171 -32 0
-171 -15 0
-171 65 0
-171 -27 0
171 -99 23 70 -96 97 40 32 15 -65 27 0
-172 73 0
-172 76 0
-172 3 0
-172 -5 0
-172 38 0
-172 80 0
-172 -60 0
-172 75 0
-172 -66 0
-172 -86 0
172 -73 -76 -3 5 -38 -80 60 -75 66 86 0
-173 88 0
-173 -55 0
-173 17 0
-173 -96 0
-173 90 0
-173 -19 0
-173 -28 0
-173 -30 0
-173 53 0
-173 91 0
173 -88 55 -17 96 -90 19 28 30 -53 -91 0
-174 98 0
-174 57 0
-174 79 0
-174 37 0
-174 39 0
-174 71 0
-174 70 0
-174 -52 0
-174 93 0
-174 49 0
174 -98 -57 -79 -37 -39 -71 -70 52 -93 -49 0
-175 1 0
-175 99 0
-175 -28 0
-175 19 0
-175 -41 0
-175 20 0
-175 23 0
-175 16 0
-175 49 0
-175 67 0
175 -1 -99 28 -19 41 -20 -23 -16 -49 -67 0
-176 49 0
-176 -60 0
-176 96 0
-176 87 0
-176 -3 0
-176 55 0
-176 44 0
-176 37 0
-176 26 0
-176 21 0
176 -49 60 -96 -87 3 -55 -44 -37 -26 -21 0
-177 26 0
-177 34 0
-177 -47 0
-177 -6 0
-177 -39 0
-177 99 0
-177 89 0
-177 37 0
-177 94 0
-177 -4 0
177 -26 -34 47 6 39 -99 -89 -37 -94 4 0
-178 -59 0
-178 2 0
-178 -28 0
-178 -19 0
-178 68 0
-178 49 0
-178 54 0
-178 95 0
-178 -36 0
-178 86 0
178 59 -2 28 19 -68 -49 -54 -95 36 -86 0
-179 27 0
-179 -88 0
-179 -11 0
-179 73 0
-179 96 0
-179 -63 0
-179 42 0
-179 -5 0
-179 77 0
-179 84 0
179 -27 88 11 -73 -96 63 -42 5 -77 -84 0
-180 -94 0
-180 -27 0
-180 3 0
-180 13 0
-180 -34 0
-180 -53 0
-180 -73 0
-180 30 0
-180 -33 0
-180 -97 0
180 94 27 -3 -13 34 53 73 -30 33 97 0
171 172 173 174 175 176 177 178 179 180 0
-181 -73 0
-181 77 0
-181 97 0
-181 86 0
-181 -13 0
-181 11 0
-181 9 0
-181 -52 0
-181 -76 0
-181 88 0
181 73 -77 -97 -86 13 -11 -9 52 76 -88 0
-182 -78 0
-182 -20 0
-182 10 0
-182 68 0
-182 -64 0
-182 56 0
-182 44 0
-182 37 0
-182 -27 0
-182 46 0
182 78 20 -10 -68 64 -56 -44 -37 27 -46 0
-183 66 0
-183 97 0
-183 -17 0
-183 -43 0
-183 20 0
-183 53 0
-183 -57 0
-183 46 0
-183 -75 0
-183 -34 0
183 -66 -97 17 43 -20 -53 57 -46 75 34 0
-184 56 0
-184 80 0
-184 19 0
-184 68 0
-184 76 0
-184 3 0
-184 -33 0
-184 4 0
-184 -57 0
-184 13 0
184 -56 -80 -19 -68 -76 -3 33 -4 57 -13 0
-185 -11 0
-185 55 0
-185 50 0
-185 -31 0
-185 60 0
-185 -23 0
-185 90 0
-185 5 0
-185 27 0
-185 62 0
185 11 -55 -50 31 -60 23 -90 -5 -27 -62 0
-186 49 0
-186 -78 0
-186 73 0
-186 -88 0
-186 54 0
-186 41 0
-186 34 0
-186 11 0
-186 56 0
-186 -1 0
186 -49 78 -73 88 -54 -41 -34 -11 -56 1 0
-187 2 0
-187 -66 0
-187 94 0
-187 -42 0
-187 -89 0
-187 28 0
-187 33 0
-187 -82 0
-187 -76 0
-187 -31 0
187 -2 66 -94 42 89 -28 -33 82 76 31 0
-188 3 0
-188 12 0
-188 -99 0
-188 31 0
-188 87 0
-188 -89 0
-188 -42 0
-188 -18 0
-188 37 0
-188 -76 0
188 -3 -12 99 -31 -87 89 42 18 -37 76 0
-189 15 0
-189 -12 0
-189 -93 0
-189 60 0
-189 -80 0
-189 27 0
-189 76 0
-189 -74 0
-189 39 0
-189 -49 0
189 -15 12 93 -60 80 -27 -76 74 -39 49 0
-190 100 0
-190 70 0
-190 -71 0
-190 -82 0
-190 -31 0
-190 6 0
-190 -66 0
-190 28 0
-190 36 0
-190 72 0
190 -100 -70 71 82 31 -6 66 -28 -36 -72 0
181 182 183 184 185 186 187 188 189 190 0
-191 63 0
-191 12 0
-191 -80 0
-191 1 0
-191 -24 0
-191 31 0
-191 -86 0
-191 27 0
-191 -19 0
-191 -36 0
191 -63 -12 80 -1 24 -31 86 -27 19 36 0
-192 -40 0
-192 86 0
-192 1 0
-192 32 0
-192 -9 0
-192 88 0
-192 46 0
-192 63 0
-192 -28 0
-192 74 0
192 40 -86 -1 -32 9 -88 -46 -63 28 -74 0
-193 -26 0
-193 -67 0
-193 -28 0
-193 -38 0
-193 21 0
-193 77 0
-193 -14 0
-193 74 0
-193 -4 0
-193 -64 0
193 26 67 28 38 -21 -77 14 -74 4 64 0
-194 -63 0
-194 -84 0
-194 -59 0
-194 -43 0
-194 76 0
-194 -93 0
-194 11 0
-194 33 0
-194 -8 0
-194 -72 0
194 63 84 59 43 -76 93 -11 -33 8 72 0
-195 -75 0
-195 60 0
-195 -18 0
-195 30 0
-195 8 0
-195 96 0
-195 29 0
-195 -77 0
-195 15 0
-195 -42 0
195 75 -60 18 -30 -8 -96 -29 77 -15 42 0
-196 73 0
-196 35 0
-196 -74 0
-196 -67 0
-196 93 0
-196 30 0
-196 61 0
-196 97 0
-196 60 0
-196 -75 0
196 -73 -35 74 67 -93 -30 -61 -97 -60 75 0
-197 -65 0
-197 -34 0
-197 -98 0
-197 -21 0
-197 28 0
-197 66 0
-197 -30 0
-197 -64 0
-197 37 0
-197 -35 0
197 65 34 98 21 -28 -66 30 64 -37 35 0
-198 -72 0
-198 -80 0
-198 -10 0
-198 -4 0
-198 -93 0
-198 -25 0
-198 -46 0
-198 100 0
-198 -27 0
-198 65 0
198 72 80 10 4 93 25 46 -100 27 -65 0
-199 87 0
-199 74 0
-199 -88 0
-199 -16 0
-199 91 0
-199 44 0
-199 71 0
-199 -37 0
-199 -56 0
-199 62 0
199 -87 -74 88 16 -91 -44 -71 37 56 -62 0
-200 -93 0
-200 71 0
-200 -65 0
-200 -58 0
-200 -39 0
-200 -80 0
-200 -32 0
-200 90 0
-200 38 0
-200 18 0
200 93 -71 65 58 39 80 32 -90 -38 -18 0
191 192 193 194 195 196 197 198 199 200 0
